<number of tasks>
100

<cycle time>
1000

<order strength>
0.895


<task times>
1 74
2 543
3 228
4 256
5 152
6 47
7 59
8 199
9 182
10 445
11 152
12 48
13 81
14 302
15 513
16 175
17 39
18 469
19 536
20 232
21 112
22 88
23 301
24 72
25 51
26 532
27 82
28 186
29 466
30 330
31 41
32 170
33 217
34 519
35 199
36 166
37 235
38 504
39 239
40 201
41 239
42 40
43 188
44 426
45 89
46 359
47 485
48 493
49 70
50 474
51 247
52 34
53 148
54 113
55 192
56 124
57 249
58 546
59 64
60 99
61 486
62 533
63 230
64 38
65 137
66 271
67 260
68 542
69 204
70 497
71 299
72 102
73 139
74 53
75 124
76 375
77 68
78 108
79 133
80 205
81 537
82 199
83 559
84 264
85 268
86 296
87 228
88 190
89 236
90 54
91 275
92 150
93 286
94 300
95 223
96 33
97 216
98 171
99 493
100 64

<precedence relations>
1,5
1,6
1,7
2,5
2,6
2,7
3,5
3,6
3,7
4,5
4,6
4,7
5,8
5,9
6,8
6,9
7,8
7,9
8,10
8,11
8,12
8,13
9,10
9,11
9,12
9,13
10,14
10,15
11,14
11,15
12,14
12,15
13,14
13,15
14,16
14,17
15,16
15,17
16,18
16,19
16,20
16,21
16,22
17,18
17,19
17,20
17,21
17,22
18,23
18,24
18,25
19,23
19,24
19,25
20,23
20,24
20,25
21,23
21,24
21,25
22,23
22,24
22,25
23,26
23,27
23,28
24,26
24,27
24,28
25,26
25,27
25,28
26,29
26,30
26,31
27,29
27,30
27,31
28,29
28,30
28,31
29,32
29,33
29,34
30,32
30,33
30,34
31,32
31,33
31,34
32,35
32,36
33,35
33,36
34,35
34,36
35,37
35,38
35,39
35,40
36,37
36,38
36,39
36,40
37,41
37,42
37,43
38,41
38,42
39,41
39,42
39,43
40,41
40,42
40,43
41,44
41,45
41,46
41,47
42,44
42,45
43,44
43,45
43,46
43,47
44,48
44,49
44,50
44,51
45,48
45,49
45,51
46,48
46,50
47,68
47,69
47,72
48,52
49,52
50,52
51,52
52,53
52,54
53,55
53,56
53,57
54,55
54,56
54,59
55,58
55,60
55,61
55,70
56,64
57,59
58,75
58,76
58,77
58,78
59,62
59,63
59,64
60,90
60,93
60,95
61,63
61,68
62,66
62,68
63,65
63,66
63,67
64,65
64,66
64,67
64,68
64,69
65,77
66,71
66,72
66,76
67,73
67,74
68,74
68,90
69,70
69,77
69,78
70,74
70,75
70,76
70,79
70,80
71,77
71,78
71,79
71,80
72,74
73,75
73,91
73,94
73,95
74,95
75,81
75,86
76,82
76,93
77,82
77,83
78,94
79,85
79,94
80,81
80,83
81,85
81,97
82,86
82,95
83,84
84,88
84,89
84,90
85,93
86,87
87,100
89,91
89,93
89,94
89,95
90,92
90,94
90,96
91,96
92,97
92,99
94,99
94,100
95,98

<end>
